100
100
100
99
99
98
98
98
96
96
96
96
95
95
94
94
93
91
90
90
89
89
89
88
88
86
85
83
83
83
83
81
81
79
79
78
78
78
77
76
75
75
72
71
68
68
67
66
61
60
60
59
59
58
58
58
57
56
52
52
52
52
50
47
47
47
44
43
43
43
41
41
41
40
39
38
36
36
32
32
32
31
29
29
29
28
28
28
28
27
27
27
26
25
24
24
24
24
23
23
21
21
